************************************************************************
file with basedata            : mm28_.bas
initial value random generator: 1631446312
************************************************************************
projects                      :  1
jobs (incl. supersource/sink ):  12
horizon                       :  86
RESOURCES
  - renewable                 :  2   R
  - nonrenewable              :  2   N
  - doubly constrained        :  0   D
************************************************************************
PROJECT INFORMATION:
pronr.  #jobs rel.date duedate tardcost  MPM-Time
    1     10      0       24        2       24
************************************************************************
PRECEDENCE RELATIONS:
jobnr.    #modes  #successors   successors
   0        1          3           1   2   3
   1        3          1           7
   2        3          3           4   5   7
   3        3          1           6
   4        3          1          10
   5        3          1           6
   6        3          2           8   9
   7        3          3           8   9  10
   8        3          1          11
   9        3          1          11
  10        3          1          11
  11        1          0        
************************************************************************
REQUESTS/DURATIONS:
jobnr. mode duration  R 1  R 2  R 3  R 4  E(W 1)  E(W 2)  E(W 3)
------------------------------------------------------------------------
  0      1     0       0    0    0    0     0       0       0
  1      1     1       7    0    0    2     7       0       2
  2      1     3       0    7    9    0    21      27       0
  3      1     5       0    5    0    8    25       0      40
  4      1     4       0    9    9    0    36      36       0
  5      1     9       0    7    0    7    63       0      63
  6      1     4       6    0    4    0    24      16       0
  7      1     6       5    0    2    0    30      12       0
  8      1     5       0    9    0    1    45       0      10
  9      1     8       0    6    0    6    48       0      48
 10      1     7       4    0    0    4    28       0      28
 11      1     0       0    0    0    0     0       0       0
************************************************************************
RESOURCEAVAILABILITIES:
  R 1  R 2  R 3
   53   43   38
************************************************************************
RESOURCE LIMITS:
jobnr.  l(R 1)  u(R 1)  l(R 2)  u(R 2)  l(R 3)  u(R 3)
------------------------------------------------------------------------
  0        0       0       0       0       0       0
  1        4       7       0       0       1       2
  2        4       7       5       9       0       0
  3        3       5       0       0       4       8
  4        5       9       5       9       0       0
  5        4       7       0       0       4       7
  6        3       6       2       4       0       0
  7        3       5       1       2       0       0
  8        5       9       0       0       1       2
  9        3       6       0       0       3       6
 10        2       4       0       0       2       4
 11        0       0       0       0       0       0
************************************************************************
SCENARIOS:
------------------------------------------------------------------------
RESOURCE k = 1
s = 1: (0, 7, 22, 23, 41, 71, 30, 33, 43, 53, 24, 0)
s = 2: (0, 8, 34, 28, 27, 41, 25, 26, 36, 60, 25, 0)
s = 3: (0, 7, 19, 21, 46, 57, 27, 30, 32, 32, 29, 0)
s = 4: (0, 11, 34, 25, 59, 55, 25, 19, 47, 64, 16, 0)
s = 5: (0, 9, 20, 29, 36, 64, 16, 22, 36, 45, 42, 0)
s = 6: (0, 8, 23, 21, 59, 60, 18, 37, 43, 45, 39, 0)
s = 7: (0, 12, 28, 17, 53, 77, 27, 24, 52, 46, 20, 0)
s = 8: (0, 7, 21, 28, 25, 53, 26, 23, 40, 30, 28, 0)
s = 9: (0, 10, 23, 21, 48, 47, 28, 53, 60, 33, 19, 0)
s = 10: (0, 5, 22, 28, 61, 57, 25, 38, 62, 54, 44, 0)
s = 11: (0, 6, 21, 41, 33, 58, 18, 37, 64, 62, 29, 0)
s = 12: (0, 9, 26, 21, 66, 73, 24, 24, 37, 73, 40, 0)
s = 13: (0, 7, 14, 30, 50, 63, 21, 26, 34, 35, 35, 0)
s = 14: (0, 9, 20, 42, 26, 53, 22, 38, 45, 55, 18, 0)
s = 15: (0, 8, 16, 30, 53, 70, 31, 24, 53, 29, 20, 0)
s = 16: (0, 7, 24, 23, 40, 67, 30, 37, 41, 53, 26, 0)
s = 17: (0, 11, 23, 27, 37, 73, 30, 22, 58, 39, 16, 0)
s = 18: (0, 8, 19, 23, 43, 61, 28, 42, 46, 48, 29, 0)
s = 19: (0, 7, 12, 20, 41, 73, 37, 34, 63, 40, 22, 0)
s = 20: (0, 7, 17, 20, 51, 72, 24, 30, 36, 34, 23, 0)
s = 21: (0, 6, 24, 32, 30, 97, 29, 36, 39, 36, 32, 0)
s = 22: (0, 8, 25, 16, 27, 86, 28, 19, 44, 66, 40, 0)
s = 23: (0, 5, 17, 35, 54, 65, 20, 34, 43, 67, 25, 0)
s = 24: (0, 5, 28, 35, 58, 76, 32, 27, 50, 58, 17, 0)
s = 25: (0, 8, 14, 25, 32, 82, 16, 40, 50, 53, 41, 0)
s = 26: (0, 5, 25, 14, 45, 49, 16, 30, 62, 56, 35, 0)
s = 27: (0, 6, 25, 18, 36, 41, 17, 24, 46, 56, 35, 0)
s = 28: (0, 7, 14, 27, 36, 58, 23, 29, 46, 28, 43, 0)
s = 29: (0, 10, 29, 30, 32, 44, 24, 34, 38, 40, 27, 0)
s = 30: (0, 7, 17, 20, 33, 53, 24, 25, 35, 69, 16, 0)
s = 31: (0, 10, 16, 34, 32, 64, 22, 30, 27, 43, 24, 0)
s = 32: (0, 5, 33, 26, 37, 41, 21, 37, 34, 59, 32, 0)
s = 33: (0, 6, 26, 23, 38, 60, 18, 18, 34, 47, 18, 0)
s = 34: (0, 8, 18, 30, 29, 77, 15, 19, 31, 44, 38, 0)
s = 35: (0, 5, 19, 19, 21, 92, 23, 33, 71, 52, 29, 0)
s = 36: (0, 6, 27, 20, 34, 60, 26, 46, 46, 48, 17, 0)
s = 37: (0, 9, 16, 28, 33, 105, 23, 41, 55, 51, 36, 0)
s = 38: (0, 5, 23, 20, 42, 68, 38, 32, 43, 57, 31, 0)
s = 39: (0, 6, 30, 19, 33, 58, 38, 31, 44, 30, 30, 0)
s = 40: (0, 7, 21, 23, 42, 89, 23, 41, 51, 33, 21, 0)
s = 41: (0, 9, 21, 23, 41, 60, 25, 38, 58, 32, 23, 0)
s = 42: (0, 9, 15, 40, 29, 44, 30, 28, 33, 37, 29, 0)
s = 43: (0, 8, 34, 28, 46, 52, 24, 17, 60, 62, 23, 0)
s = 44: (0, 7, 39, 21, 59, 83, 28, 21, 56, 31, 33, 0)
s = 45: (0, 11, 19, 22, 27, 73, 18, 36, 34, 57, 37, 0)
s = 46: (0, 7, 28, 30, 50, 81, 18, 25, 34, 34, 24, 0)
s = 47: (0, 8, 23, 18, 34, 92, 36, 30, 38, 33, 47, 0)
s = 48: (0, 9, 29, 24, 38, 54, 28, 23, 36, 35, 20, 0)
s = 49: (0, 4, 14, 17, 34, 47, 35, 30, 42, 57, 18, 0)
s = 50: (0, 10, 33, 17, 46, 44, 22, 47, 41, 53, 22, 0)
s = 51: (0, 6, 22, 21, 30, 98, 32, 51, 52, 51, 16, 0)
s = 52: (0, 7, 32, 31, 26, 76, 20, 37, 57, 52, 32, 0)
s = 53: (0, 6, 22, 26, 28, 61, 28, 23, 40, 51, 37, 0)
s = 54: (0, 5, 19, 17, 28, 70, 21, 34, 51, 49, 29, 0)
s = 55: (0, 7, 19, 20, 63, 41, 26, 43, 35, 50, 18, 0)
s = 56: (0, 6, 24, 22, 30, 77, 23, 33, 41, 64, 17, 0)
s = 57: (0, 6, 24, 17, 38, 110, 40, 26, 35, 38, 32, 0)
s = 58: (0, 7, 26, 27, 26, 81, 23, 32, 53, 52, 22, 0)
s = 59: (0, 6, 15, 26, 41, 79, 23, 26, 70, 32, 24, 0)
s = 60: (0, 7, 15, 17, 39, 54, 22, 26, 41, 44, 27, 0)
s = 61: (0, 9, 21, 30, 33, 78, 27, 30, 46, 38, 29, 0)
s = 62: (0, 8, 19, 24, 53, 48, 14, 49, 42, 31, 30, 0)
s = 63: (0, 9, 17, 28, 45, 41, 25, 30, 25, 36, 32, 0)
s = 64: (0, 8, 19, 21, 39, 69, 32, 49, 39, 41, 50, 0)
s = 65: (0, 10, 25, 40, 27, 66, 18, 19, 49, 59, 32, 0)
s = 66: (0, 9, 28, 22, 32, 40, 23, 49, 53, 32, 23, 0)
s = 67: (0, 10, 25, 29, 37, 75, 18, 43, 53, 28, 17, 0)
s = 68: (0, 11, 30, 14, 38, 50, 33, 21, 35, 30, 25, 0)
s = 69: (0, 9, 18, 26, 38, 49, 15, 21, 35, 53, 42, 0)
s = 70: (0, 7, 13, 25, 41, 46, 17, 35, 31, 37, 16, 0)
s = 71: (0, 7, 27, 26, 50, 43, 37, 19, 29, 55, 25, 0)
s = 72: (0, 8, 17, 34, 25, 108, 30, 32, 35, 57, 25, 0)
s = 73: (0, 6, 30, 26, 46, 86, 15, 30, 44, 35, 20, 0)
s = 74: (0, 6, 17, 30, 56, 74, 21, 23, 29, 45, 36, 0)
s = 75: (0, 7, 24, 31, 34, 69, 34, 41, 48, 55, 36, 0)
s = 76: (0, 8, 23, 34, 43, 50, 17, 36, 41, 60, 24, 0)
s = 77: (0, 8, 14, 43, 45, 79, 29, 27, 46, 64, 20, 0)
s = 78: (0, 6, 20, 35, 41, 70, 14, 30, 46, 51, 31, 0)
s = 79: (0, 9, 18, 15, 29, 73, 20, 24, 30, 43, 19, 0)
s = 80: (0, 9, 16, 25, 24, 64, 17, 33, 55, 49, 17, 0)
s = 81: (0, 6, 18, 26, 35, 97, 28, 32, 36, 36, 34, 0)
s = 82: (0, 9, 15, 25, 45, 43, 28, 35, 62, 58, 33, 0)
s = 83: (0, 10, 13, 24, 41, 63, 18, 26, 51, 56, 34, 0)
s = 84: (0, 5, 19, 19, 29, 86, 27, 23, 68, 63, 22, 0)
s = 85: (0, 6, 29, 15, 30, 47, 27, 21, 50, 69, 39, 0)
s = 86: (0, 12, 19, 31, 63, 73, 25, 32, 38, 43, 28, 0)
s = 87: (0, 6, 23, 26, 41, 48, 23, 23, 37, 43, 21, 0)
s = 88: (0, 8, 14, 21, 47, 104, 21, 31, 45, 52, 47, 0)
s = 89: (0, 7, 26, 43, 38, 47, 21, 31, 62, 49, 25, 0)
s = 90: (0, 8, 20, 21, 21, 56, 24, 32, 39, 35, 33, 0)
s = 91: (0, 8, 32, 15, 34, 34, 19, 29, 50, 68, 26, 0)
s = 92: (0, 6, 16, 13, 64, 52, 23, 26, 45, 31, 34, 0)
s = 93: (0, 6, 16, 30, 31, 50, 26, 21, 36, 26, 23, 0)
s = 94: (0, 6, 24, 23, 35, 48, 19, 31, 33, 59, 27, 0)
s = 95: (0, 6, 19, 23, 43, 76, 17, 27, 66, 35, 47, 0)
s = 96: (0, 6, 29, 26, 22, 46, 29, 30, 43, 34, 24, 0)
s = 97: (0, 8, 20, 19, 45, 73, 32, 28, 43, 42, 17, 0)
s = 98: (0, 8, 16, 32, 37, 54, 37, 21, 42, 42, 38, 0)
s = 99: (0, 9, 20, 17, 25, 106, 23, 18, 45, 51, 26, 0)
s = 100: (0, 5, 27, 17, 40, 79, 19, 24, 52, 94, 23, 0)
s = 101: (0, 6, 13, 18, 54, 46, 28, 21, 33, 40, 25, 0)
s = 102: (0, 7, 32, 20, 40, 55, 24, 43, 55, 41, 36, 0)
s = 103: (0, 8, 14, 23, 40, 78, 19, 40, 73, 76, 24, 0)
s = 104: (0, 8, 25, 36, 50, 40, 19, 17, 32, 63, 23, 0)
s = 105: (0, 11, 16, 29, 23, 42, 21, 25, 31, 30, 43, 0)
s = 106: (0, 7, 18, 48, 30, 44, 35, 37, 36, 69, 37, 0)
s = 107: (0, 6, 27, 33, 25, 56, 29, 39, 34, 31, 46, 0)
s = 108: (0, 4, 16, 23, 23, 39, 21, 34, 38, 44, 34, 0)
s = 109: (0, 8, 20, 39, 33, 78, 25, 52, 48, 43, 35, 0)
s = 110: (0, 6, 20, 18, 59, 76, 21, 41, 39, 37, 30, 0)
s = 111: (0, 5, 24, 33, 39, 48, 22, 23, 63, 55, 33, 0)
s = 112: (0, 7, 14, 46, 38, 57, 27, 34, 48, 56, 32, 0)
s = 113: (0, 5, 17, 15, 42, 67, 24, 30, 53, 27, 30, 0)
s = 114: (0, 7, 19, 32, 21, 36, 26, 31, 47, 38, 28, 0)
s = 115: (0, 6, 30, 30, 33, 98, 43, 34, 55, 56, 18, 0)
s = 116: (0, 8, 31, 20, 38, 95, 17, 35, 56, 35, 30, 0)
s = 117: (0, 9, 20, 26, 37, 78, 21, 24, 40, 53, 33, 0)
s = 118: (0, 7, 33, 19, 30, 52, 17, 25, 58, 52, 32, 0)
s = 119: (0, 5, 13, 23, 39, 83, 19, 27, 38, 44, 22, 0)
s = 120: (0, 6, 23, 25, 44, 74, 30, 21, 45, 56, 30, 0)
s = 121: (0, 6, 31, 16, 33, 58, 32, 29, 33, 53, 19, 0)
s = 122: (0, 6, 14, 20, 43, 43, 32, 33, 78, 56, 30, 0)
s = 123: (0, 5, 20, 20, 24, 50, 26, 46, 35, 45, 25, 0)
s = 124: (0, 6, 15, 15, 37, 46, 22, 35, 62, 27, 40, 0)
s = 125: (0, 7, 24, 20, 49, 46, 15, 26, 57, 43, 28, 0)
s = 126: (0, 7, 23, 23, 49, 46, 18, 37, 55, 38, 17, 0)
s = 127: (0, 6, 14, 20, 30, 86, 34, 37, 25, 53, 18, 0)
s = 128: (0, 7, 25, 33, 33, 64, 14, 22, 44, 73, 31, 0)
s = 129: (0, 7, 22, 22, 47, 91, 20, 27, 48, 35, 19, 0)
s = 130: (0, 4, 24, 33, 57, 55, 21, 41, 42, 29, 16, 0)
s = 131: (0, 11, 17, 26, 37, 44, 28, 25, 45, 63, 25, 0)
s = 132: (0, 6, 21, 19, 45, 40, 36, 30, 26, 50, 26, 0)
s = 133: (0, 6, 31, 35, 35, 98, 16, 31, 44, 52, 30, 0)
s = 134: (0, 10, 27, 25, 41, 76, 17, 41, 47, 72, 33, 0)
s = 135: (0, 6, 16, 31, 31, 38, 18, 23, 55, 57, 27, 0)
s = 136: (0, 7, 19, 42, 36, 47, 26, 27, 69, 33, 36, 0)
s = 137: (0, 7, 11, 24, 31, 76, 27, 18, 61, 63, 25, 0)
s = 138: (0, 11, 23, 39, 39, 41, 27, 54, 33, 44, 30, 0)
s = 139: (0, 13, 29, 13, 25, 62, 22, 41, 71, 59, 36, 0)
s = 140: (0, 7, 22, 35, 25, 104, 15, 26, 64, 31, 33, 0)
s = 141: (0, 8, 18, 29, 36, 61, 29, 20, 72, 39, 30, 0)
s = 142: (0, 7, 21, 24, 38, 52, 21, 43, 45, 64, 38, 0)
s = 143: (0, 5, 27, 15, 47, 70, 26, 29, 44, 35, 28, 0)
s = 144: (0, 7, 30, 26, 28, 68, 15, 38, 39, 46, 18, 0)
s = 145: (0, 7, 32, 15, 58, 54, 30, 17, 72, 53, 26, 0)
s = 146: (0, 11, 25, 41, 51, 46, 22, 43, 51, 56, 34, 0)
s = 147: (0, 11, 28, 20, 57, 95, 36, 35, 39, 47, 50, 0)
s = 148: (0, 6, 20, 23, 29, 75, 38, 28, 41, 43, 15, 0)
s = 149: (0, 10, 22, 49, 42, 88, 18, 17, 39, 41, 42, 0)
s = 150: (0, 8, 18, 19, 51, 80, 38, 42, 45, 34, 21, 0)
s = 151: (0, 10, 21, 39, 29, 41, 16, 28, 54, 34, 24, 0)
s = 152: (0, 5, 20, 16, 32, 48, 18, 45, 27, 45, 21, 0)
s = 153: (0, 7, 19, 26, 26, 52, 21, 33, 58, 49, 31, 0)
s = 154: (0, 8, 23, 32, 40, 45, 25, 36, 68, 63, 41, 0)
s = 155: (0, 7, 16, 34, 46, 80, 28, 31, 61, 47, 30, 0)
s = 156: (0, 6, 19, 17, 37, 57, 31, 29, 54, 38, 33, 0)
s = 157: (0, 5, 20, 23, 33, 79, 24, 31, 40, 27, 27, 0)
s = 158: (0, 7, 23, 20, 49, 102, 25, 30, 48, 47, 20, 0)
s = 159: (0, 9, 30, 30, 43, 52, 41, 22, 37, 55, 26, 0)
s = 160: (0, 10, 13, 27, 44, 64, 21, 17, 47, 32, 40, 0)
s = 161: (0, 5, 35, 24, 32, 82, 28, 23, 48, 81, 43, 0)
s = 162: (0, 5, 26, 36, 25, 83, 45, 28, 47, 53, 25, 0)
s = 163: (0, 9, 17, 32, 37, 58, 33, 39, 50, 64, 20, 0)
s = 164: (0, 7, 17, 34, 44, 41, 38, 27, 35, 64, 36, 0)
s = 165: (0, 6, 16, 23, 48, 72, 33, 23, 37, 42, 21, 0)
s = 166: (0, 7, 13, 26, 27, 41, 30, 18, 37, 46, 20, 0)
s = 167: (0, 6, 23, 30, 40, 122, 20, 31, 32, 53, 21, 0)
s = 168: (0, 10, 18, 22, 40, 59, 19, 53, 43, 42, 29, 0)
s = 169: (0, 5, 18, 27, 34, 54, 22, 22, 49, 28, 20, 0)
s = 170: (0, 5, 25, 36, 20, 72, 21, 27, 36, 30, 26, 0)
s = 171: (0, 9, 25, 26, 29, 78, 27, 39, 49, 50, 21, 0)
s = 172: (0, 7, 16, 25, 38, 54, 14, 28, 47, 34, 34, 0)
s = 173: (0, 12, 22, 18, 32, 80, 22, 36, 27, 87, 39, 0)
s = 174: (0, 6, 32, 16, 29, 38, 33, 20, 38, 48, 28, 0)
s = 175: (0, 7, 15, 36, 25, 48, 30, 31, 39, 47, 17, 0)
s = 176: (0, 10, 17, 19, 26, 58, 26, 25, 33, 28, 35, 0)
s = 177: (0, 7, 22, 19, 43, 62, 28, 29, 29, 56, 42, 0)
s = 178: (0, 6, 17, 24, 32, 58, 34, 28, 35, 31, 41, 0)
s = 179: (0, 6, 31, 35, 40, 37, 14, 37, 35, 51, 19, 0)
s = 180: (0, 8, 30, 18, 41, 100, 23, 38, 56, 32, 34, 0)
s = 181: (0, 6, 18, 43, 41, 48, 25, 28, 65, 32, 31, 0)
s = 182: (0, 7, 15, 33, 48, 53, 35, 17, 65, 45, 30, 0)
s = 183: (0, 10, 26, 19, 50, 49, 25, 37, 52, 48, 32, 0)
s = 184: (0, 5, 16, 18, 37, 46, 20, 21, 63, 57, 22, 0)
s = 185: (0, 8, 13, 22, 48, 51, 16, 32, 47, 39, 27, 0)
s = 186: (0, 12, 26, 28, 41, 113, 19, 19, 60, 37, 22, 0)
s = 187: (0, 9, 19, 25, 30, 41, 17, 17, 43, 51, 33, 0)
s = 188: (0, 7, 23, 15, 54, 50, 21, 24, 58, 56, 26, 0)
s = 189: (0, 6, 13, 39, 23, 84, 16, 27, 39, 50, 21, 0)
s = 190: (0, 7, 25, 19, 51, 101, 19, 25, 43, 44, 22, 0)
s = 191: (0, 8, 21, 18, 56, 76, 32, 22, 51, 44, 21, 0)
s = 192: (0, 11, 19, 23, 66, 69, 25, 38, 47, 74, 21, 0)
s = 193: (0, 7, 25, 29, 42, 73, 40, 24, 72, 58, 25, 0)
s = 194: (0, 7, 22, 23, 50, 62, 24, 35, 39, 52, 16, 0)
s = 195: (0, 5, 40, 21, 38, 64, 15, 22, 51, 38, 28, 0)
s = 196: (0, 10, 20, 24, 27, 65, 37, 30, 25, 47, 36, 0)
s = 197: (0, 6, 17, 34, 44, 38, 21, 26, 36, 77, 19, 0)
s = 198: (0, 6, 37, 23, 42, 81, 25, 22, 36, 49, 32, 0)
s = 199: (0, 4, 16, 18, 43, 68, 32, 23, 61, 48, 26, 0)
s = 200: (0, 11, 32, 29, 31, 79, 16, 34, 42, 47, 24, 0)
------------------------------------------------------------------------
RESOURCE k = 2
s = 1: (0, 0, 28, 0, 41, 0, 20, 13, 0, 0, 0, 0)
s = 2: (0, 0, 43, 0, 27, 0, 17, 11, 0, 0, 0, 0)
s = 3: (0, 0, 24, 0, 46, 0, 18, 12, 0, 0, 0, 0)
s = 4: (0, 0, 44, 0, 59, 0, 17, 8, 0, 0, 0, 0)
s = 5: (0, 0, 25, 0, 36, 0, 11, 9, 0, 0, 0, 0)
s = 6: (0, 0, 29, 0, 59, 0, 12, 15, 0, 0, 0, 0)
s = 7: (0, 0, 36, 0, 53, 0, 18, 10, 0, 0, 0, 0)
s = 8: (0, 0, 27, 0, 25, 0, 17, 10, 0, 0, 0, 0)
s = 9: (0, 0, 29, 0, 48, 0, 19, 21, 0, 0, 0, 0)
s = 10: (0, 0, 28, 0, 61, 0, 17, 15, 0, 0, 0, 0)
s = 11: (0, 0, 27, 0, 33, 0, 12, 15, 0, 0, 0, 0)
s = 12: (0, 0, 33, 0, 66, 0, 16, 10, 0, 0, 0, 0)
s = 13: (0, 0, 18, 0, 50, 0, 14, 11, 0, 0, 0, 0)
s = 14: (0, 0, 25, 0, 26, 0, 15, 16, 0, 0, 0, 0)
s = 15: (0, 0, 20, 0, 53, 0, 21, 10, 0, 0, 0, 0)
s = 16: (0, 0, 31, 0, 40, 0, 20, 15, 0, 0, 0, 0)
s = 17: (0, 0, 29, 0, 37, 0, 20, 9, 0, 0, 0, 0)
s = 18: (0, 0, 25, 0, 43, 0, 19, 17, 0, 0, 0, 0)
s = 19: (0, 0, 16, 0, 41, 0, 25, 14, 0, 0, 0, 0)
s = 20: (0, 0, 22, 0, 51, 0, 16, 12, 0, 0, 0, 0)
s = 21: (0, 0, 31, 0, 30, 0, 19, 15, 0, 0, 0, 0)
s = 22: (0, 0, 31, 0, 27, 0, 19, 8, 0, 0, 0, 0)
s = 23: (0, 0, 22, 0, 54, 0, 14, 14, 0, 0, 0, 0)
s = 24: (0, 0, 36, 0, 58, 0, 21, 11, 0, 0, 0, 0)
s = 25: (0, 0, 18, 0, 32, 0, 11, 16, 0, 0, 0, 0)
s = 26: (0, 0, 32, 0, 45, 0, 11, 12, 0, 0, 0, 0)
s = 27: (0, 0, 32, 0, 36, 0, 12, 10, 0, 0, 0, 0)
s = 28: (0, 0, 18, 0, 36, 0, 16, 12, 0, 0, 0, 0)
s = 29: (0, 0, 37, 0, 32, 0, 16, 14, 0, 0, 0, 0)
s = 30: (0, 0, 22, 0, 33, 0, 16, 10, 0, 0, 0, 0)
s = 31: (0, 0, 20, 0, 32, 0, 15, 12, 0, 0, 0, 0)
s = 32: (0, 0, 42, 0, 37, 0, 14, 15, 0, 0, 0, 0)
s = 33: (0, 0, 33, 0, 38, 0, 12, 7, 0, 0, 0, 0)
s = 34: (0, 0, 24, 0, 29, 0, 10, 8, 0, 0, 0, 0)
s = 35: (0, 0, 25, 0, 21, 0, 15, 14, 0, 0, 0, 0)
s = 36: (0, 0, 35, 0, 34, 0, 18, 19, 0, 0, 0, 0)
s = 37: (0, 0, 21, 0, 33, 0, 15, 17, 0, 0, 0, 0)
s = 38: (0, 0, 29, 0, 42, 0, 25, 13, 0, 0, 0, 0)
s = 39: (0, 0, 39, 0, 33, 0, 26, 13, 0, 0, 0, 0)
s = 40: (0, 0, 27, 0, 42, 0, 15, 17, 0, 0, 0, 0)
s = 41: (0, 0, 27, 0, 41, 0, 17, 15, 0, 0, 0, 0)
s = 42: (0, 0, 20, 0, 29, 0, 20, 12, 0, 0, 0, 0)
s = 43: (0, 0, 44, 0, 46, 0, 16, 7, 0, 0, 0, 0)
s = 44: (0, 0, 49, 0, 59, 0, 19, 9, 0, 0, 0, 0)
s = 45: (0, 0, 25, 0, 27, 0, 12, 15, 0, 0, 0, 0)
s = 46: (0, 0, 36, 0, 50, 0, 12, 10, 0, 0, 0, 0)
s = 47: (0, 0, 30, 0, 34, 0, 24, 12, 0, 0, 0, 0)
s = 48: (0, 0, 37, 0, 38, 0, 19, 10, 0, 0, 0, 0)
s = 49: (0, 0, 18, 0, 34, 0, 24, 12, 0, 0, 0, 0)
s = 50: (0, 0, 42, 0, 46, 0, 15, 19, 0, 0, 0, 0)
s = 51: (0, 0, 28, 0, 30, 0, 21, 21, 0, 0, 0, 0)
s = 52: (0, 0, 41, 0, 26, 0, 14, 15, 0, 0, 0, 0)
s = 53: (0, 0, 28, 0, 28, 0, 19, 10, 0, 0, 0, 0)
s = 54: (0, 0, 24, 0, 28, 0, 14, 14, 0, 0, 0, 0)
s = 55: (0, 0, 24, 0, 63, 0, 18, 17, 0, 0, 0, 0)
s = 56: (0, 0, 31, 0, 30, 0, 16, 13, 0, 0, 0, 0)
s = 57: (0, 0, 31, 0, 38, 0, 27, 11, 0, 0, 0, 0)
s = 58: (0, 0, 34, 0, 26, 0, 16, 13, 0, 0, 0, 0)
s = 59: (0, 0, 20, 0, 41, 0, 16, 11, 0, 0, 0, 0)
s = 60: (0, 0, 19, 0, 39, 0, 15, 11, 0, 0, 0, 0)
s = 61: (0, 0, 27, 0, 33, 0, 18, 12, 0, 0, 0, 0)
s = 62: (0, 0, 25, 0, 53, 0, 9, 20, 0, 0, 0, 0)
s = 63: (0, 0, 22, 0, 45, 0, 17, 12, 0, 0, 0, 0)
s = 64: (0, 0, 25, 0, 39, 0, 21, 20, 0, 0, 0, 0)
s = 65: (0, 0, 32, 0, 27, 0, 12, 8, 0, 0, 0, 0)
s = 66: (0, 0, 35, 0, 32, 0, 16, 20, 0, 0, 0, 0)
s = 67: (0, 0, 32, 0, 37, 0, 12, 17, 0, 0, 0, 0)
s = 68: (0, 0, 38, 0, 38, 0, 22, 9, 0, 0, 0, 0)
s = 69: (0, 0, 23, 0, 38, 0, 10, 9, 0, 0, 0, 0)
s = 70: (0, 0, 17, 0, 41, 0, 11, 14, 0, 0, 0, 0)
s = 71: (0, 0, 34, 0, 50, 0, 25, 8, 0, 0, 0, 0)
s = 72: (0, 0, 22, 0, 25, 0, 20, 13, 0, 0, 0, 0)
s = 73: (0, 0, 38, 0, 46, 0, 10, 12, 0, 0, 0, 0)
s = 74: (0, 0, 21, 0, 56, 0, 14, 9, 0, 0, 0, 0)
s = 75: (0, 0, 31, 0, 34, 0, 23, 17, 0, 0, 0, 0)
s = 76: (0, 0, 29, 0, 43, 0, 12, 15, 0, 0, 0, 0)
s = 77: (0, 0, 18, 0, 45, 0, 20, 11, 0, 0, 0, 0)
s = 78: (0, 0, 26, 0, 41, 0, 10, 12, 0, 0, 0, 0)
s = 79: (0, 0, 23, 0, 29, 0, 14, 10, 0, 0, 0, 0)
s = 80: (0, 0, 20, 0, 24, 0, 11, 13, 0, 0, 0, 0)
s = 81: (0, 0, 23, 0, 35, 0, 19, 13, 0, 0, 0, 0)
s = 82: (0, 0, 20, 0, 45, 0, 19, 14, 0, 0, 0, 0)
s = 83: (0, 0, 17, 0, 41, 0, 12, 11, 0, 0, 0, 0)
s = 84: (0, 0, 24, 0, 29, 0, 18, 9, 0, 0, 0, 0)
s = 85: (0, 0, 37, 0, 30, 0, 18, 9, 0, 0, 0, 0)
s = 86: (0, 0, 24, 0, 63, 0, 17, 13, 0, 0, 0, 0)
s = 87: (0, 0, 30, 0, 41, 0, 16, 10, 0, 0, 0, 0)
s = 88: (0, 0, 17, 0, 47, 0, 14, 13, 0, 0, 0, 0)
s = 89: (0, 0, 33, 0, 38, 0, 14, 13, 0, 0, 0, 0)
s = 90: (0, 0, 26, 0, 21, 0, 16, 13, 0, 0, 0, 0)
s = 91: (0, 0, 41, 0, 34, 0, 13, 12, 0, 0, 0, 0)
s = 92: (0, 0, 21, 0, 64, 0, 16, 11, 0, 0, 0, 0)
s = 93: (0, 0, 21, 0, 31, 0, 18, 9, 0, 0, 0, 0)
s = 94: (0, 0, 30, 0, 35, 0, 13, 13, 0, 0, 0, 0)
s = 95: (0, 0, 25, 0, 43, 0, 12, 11, 0, 0, 0, 0)
s = 96: (0, 0, 37, 0, 22, 0, 20, 12, 0, 0, 0, 0)
s = 97: (0, 0, 25, 0, 45, 0, 21, 12, 0, 0, 0, 0)
s = 98: (0, 0, 21, 0, 37, 0, 25, 9, 0, 0, 0, 0)
s = 99: (0, 0, 26, 0, 25, 0, 16, 7, 0, 0, 0, 0)
s = 100: (0, 0, 34, 0, 40, 0, 13, 10, 0, 0, 0, 0)
s = 101: (0, 0, 16, 0, 54, 0, 19, 9, 0, 0, 0, 0)
s = 102: (0, 0, 41, 0, 40, 0, 16, 17, 0, 0, 0, 0)
s = 103: (0, 0, 17, 0, 40, 0, 13, 16, 0, 0, 0, 0)
s = 104: (0, 0, 31, 0, 50, 0, 13, 7, 0, 0, 0, 0)
s = 105: (0, 0, 20, 0, 23, 0, 14, 10, 0, 0, 0, 0)
s = 106: (0, 0, 23, 0, 30, 0, 24, 15, 0, 0, 0, 0)
s = 107: (0, 0, 34, 0, 25, 0, 20, 16, 0, 0, 0, 0)
s = 108: (0, 0, 21, 0, 23, 0, 14, 14, 0, 0, 0, 0)
s = 109: (0, 0, 26, 0, 33, 0, 17, 21, 0, 0, 0, 0)
s = 110: (0, 0, 26, 0, 59, 0, 14, 17, 0, 0, 0, 0)
s = 111: (0, 0, 31, 0, 39, 0, 15, 10, 0, 0, 0, 0)
s = 112: (0, 0, 18, 0, 38, 0, 18, 14, 0, 0, 0, 0)
s = 113: (0, 0, 22, 0, 42, 0, 16, 12, 0, 0, 0, 0)
s = 114: (0, 0, 24, 0, 21, 0, 17, 13, 0, 0, 0, 0)
s = 115: (0, 0, 38, 0, 33, 0, 29, 14, 0, 0, 0, 0)
s = 116: (0, 0, 39, 0, 38, 0, 11, 14, 0, 0, 0, 0)
s = 117: (0, 0, 25, 0, 37, 0, 14, 10, 0, 0, 0, 0)
s = 118: (0, 0, 42, 0, 30, 0, 12, 10, 0, 0, 0, 0)
s = 119: (0, 0, 17, 0, 39, 0, 13, 11, 0, 0, 0, 0)
s = 120: (0, 0, 30, 0, 44, 0, 20, 9, 0, 0, 0, 0)
s = 121: (0, 0, 39, 0, 33, 0, 21, 12, 0, 0, 0, 0)
s = 122: (0, 0, 17, 0, 43, 0, 21, 13, 0, 0, 0, 0)
s = 123: (0, 0, 25, 0, 24, 0, 17, 19, 0, 0, 0, 0)
s = 124: (0, 0, 19, 0, 37, 0, 15, 14, 0, 0, 0, 0)
s = 125: (0, 0, 31, 0, 49, 0, 10, 11, 0, 0, 0, 0)
s = 126: (0, 0, 30, 0, 49, 0, 12, 15, 0, 0, 0, 0)
s = 127: (0, 0, 17, 0, 30, 0, 23, 15, 0, 0, 0, 0)
s = 128: (0, 0, 32, 0, 33, 0, 10, 9, 0, 0, 0, 0)
s = 129: (0, 0, 28, 0, 47, 0, 13, 11, 0, 0, 0, 0)
s = 130: (0, 0, 31, 0, 57, 0, 14, 17, 0, 0, 0, 0)
s = 131: (0, 0, 22, 0, 37, 0, 19, 10, 0, 0, 0, 0)
s = 132: (0, 0, 27, 0, 45, 0, 24, 12, 0, 0, 0, 0)
s = 133: (0, 0, 40, 0, 35, 0, 11, 13, 0, 0, 0, 0)
s = 134: (0, 0, 34, 0, 41, 0, 11, 17, 0, 0, 0, 0)
s = 135: (0, 0, 21, 0, 31, 0, 12, 10, 0, 0, 0, 0)
s = 136: (0, 0, 25, 0, 36, 0, 17, 11, 0, 0, 0, 0)
s = 137: (0, 0, 14, 0, 31, 0, 18, 7, 0, 0, 0, 0)
s = 138: (0, 0, 30, 0, 39, 0, 18, 22, 0, 0, 0, 0)
s = 139: (0, 0, 37, 0, 25, 0, 15, 17, 0, 0, 0, 0)
s = 140: (0, 0, 28, 0, 25, 0, 10, 11, 0, 0, 0, 0)
s = 141: (0, 0, 23, 0, 36, 0, 20, 8, 0, 0, 0, 0)
s = 142: (0, 0, 26, 0, 38, 0, 14, 17, 0, 0, 0, 0)
s = 143: (0, 0, 35, 0, 47, 0, 17, 12, 0, 0, 0, 0)
s = 144: (0, 0, 39, 0, 28, 0, 10, 16, 0, 0, 0, 0)
s = 145: (0, 0, 41, 0, 58, 0, 20, 7, 0, 0, 0, 0)
s = 146: (0, 0, 32, 0, 51, 0, 15, 18, 0, 0, 0, 0)
s = 147: (0, 0, 35, 0, 57, 0, 24, 14, 0, 0, 0, 0)
s = 148: (0, 0, 25, 0, 29, 0, 26, 12, 0, 0, 0, 0)
s = 149: (0, 0, 28, 0, 42, 0, 12, 7, 0, 0, 0, 0)
s = 150: (0, 0, 23, 0, 51, 0, 26, 17, 0, 0, 0, 0)
s = 151: (0, 0, 27, 0, 29, 0, 11, 11, 0, 0, 0, 0)
s = 152: (0, 0, 26, 0, 32, 0, 12, 18, 0, 0, 0, 0)
s = 153: (0, 0, 24, 0, 26, 0, 14, 14, 0, 0, 0, 0)
s = 154: (0, 0, 29, 0, 40, 0, 17, 15, 0, 0, 0, 0)
s = 155: (0, 0, 21, 0, 46, 0, 19, 13, 0, 0, 0, 0)
s = 156: (0, 0, 24, 0, 37, 0, 21, 12, 0, 0, 0, 0)
s = 157: (0, 0, 25, 0, 33, 0, 16, 13, 0, 0, 0, 0)
s = 158: (0, 0, 29, 0, 49, 0, 17, 12, 0, 0, 0, 0)
s = 159: (0, 0, 38, 0, 43, 0, 28, 9, 0, 0, 0, 0)
s = 160: (0, 0, 17, 0, 44, 0, 14, 7, 0, 0, 0, 0)
s = 161: (0, 0, 45, 0, 32, 0, 19, 9, 0, 0, 0, 0)
s = 162: (0, 0, 34, 0, 25, 0, 30, 12, 0, 0, 0, 0)
s = 163: (0, 0, 22, 0, 37, 0, 22, 16, 0, 0, 0, 0)
s = 164: (0, 0, 22, 0, 44, 0, 25, 11, 0, 0, 0, 0)
s = 165: (0, 0, 20, 0, 48, 0, 22, 10, 0, 0, 0, 0)
s = 166: (0, 0, 17, 0, 27, 0, 20, 8, 0, 0, 0, 0)
s = 167: (0, 0, 29, 0, 40, 0, 13, 13, 0, 0, 0, 0)
s = 168: (0, 0, 23, 0, 40, 0, 13, 22, 0, 0, 0, 0)
s = 169: (0, 0, 23, 0, 34, 0, 15, 9, 0, 0, 0, 0)
s = 170: (0, 0, 32, 0, 20, 0, 14, 11, 0, 0, 0, 0)
s = 171: (0, 0, 32, 0, 29, 0, 18, 16, 0, 0, 0, 0)
s = 172: (0, 0, 21, 0, 38, 0, 9, 12, 0, 0, 0, 0)
s = 173: (0, 0, 28, 0, 32, 0, 15, 15, 0, 0, 0, 0)
s = 174: (0, 0, 41, 0, 29, 0, 22, 8, 0, 0, 0, 0)
s = 175: (0, 0, 19, 0, 25, 0, 20, 13, 0, 0, 0, 0)
s = 176: (0, 0, 22, 0, 26, 0, 18, 10, 0, 0, 0, 0)
s = 177: (0, 0, 28, 0, 43, 0, 19, 12, 0, 0, 0, 0)
s = 178: (0, 0, 22, 0, 32, 0, 23, 11, 0, 0, 0, 0)
s = 179: (0, 0, 39, 0, 40, 0, 10, 15, 0, 0, 0, 0)
s = 180: (0, 0, 38, 0, 41, 0, 16, 15, 0, 0, 0, 0)
s = 181: (0, 0, 24, 0, 41, 0, 17, 12, 0, 0, 0, 0)
s = 182: (0, 0, 19, 0, 48, 0, 24, 7, 0, 0, 0, 0)
s = 183: (0, 0, 33, 0, 50, 0, 17, 15, 0, 0, 0, 0)
s = 184: (0, 0, 20, 0, 37, 0, 13, 9, 0, 0, 0, 0)
s = 185: (0, 0, 17, 0, 48, 0, 11, 13, 0, 0, 0, 0)
s = 186: (0, 0, 33, 0, 41, 0, 13, 8, 0, 0, 0, 0)
s = 187: (0, 0, 25, 0, 30, 0, 12, 7, 0, 0, 0, 0)
s = 188: (0, 0, 30, 0, 54, 0, 14, 10, 0, 0, 0, 0)
s = 189: (0, 0, 16, 0, 23, 0, 11, 11, 0, 0, 0, 0)
s = 190: (0, 0, 32, 0, 51, 0, 13, 10, 0, 0, 0, 0)
s = 191: (0, 0, 27, 0, 56, 0, 22, 9, 0, 0, 0, 0)
s = 192: (0, 0, 24, 0, 66, 0, 17, 15, 0, 0, 0, 0)
s = 193: (0, 0, 32, 0, 42, 0, 27, 10, 0, 0, 0, 0)
s = 194: (0, 0, 28, 0, 50, 0, 16, 14, 0, 0, 0, 0)
s = 195: (0, 0, 51, 0, 38, 0, 10, 9, 0, 0, 0, 0)
s = 196: (0, 0, 26, 0, 27, 0, 25, 12, 0, 0, 0, 0)
s = 197: (0, 0, 22, 0, 44, 0, 14, 11, 0, 0, 0, 0)
s = 198: (0, 0, 47, 0, 42, 0, 17, 9, 0, 0, 0, 0)
s = 199: (0, 0, 20, 0, 43, 0, 21, 9, 0, 0, 0, 0)
s = 200: (0, 0, 41, 0, 31, 0, 11, 14, 0, 0, 0, 0)
------------------------------------------------------------------------
RESOURCE k = 3
s = 1: (0, 2, 0, 36, 0, 71, 0, 0, 10, 53, 24, 0)
s = 2: (0, 3, 0, 44, 0, 41, 0, 0, 8, 60, 25, 0)
s = 3: (0, 2, 0, 34, 0, 57, 0, 0, 7, 32, 29, 0)
s = 4: (0, 3, 0, 40, 0, 55, 0, 0, 11, 64, 16, 0)
s = 5: (0, 3, 0, 45, 0, 64, 0, 0, 8, 45, 42, 0)
s = 6: (0, 3, 0, 33, 0, 60, 0, 0, 10, 45, 39, 0)
s = 7: (0, 4, 0, 27, 0, 77, 0, 0, 12, 46, 20, 0)
s = 8: (0, 2, 0, 44, 0, 53, 0, 0, 9, 30, 28, 0)
s = 9: (0, 3, 0, 33, 0, 47, 0, 0, 14, 33, 19, 0)
s = 10: (0, 2, 0, 44, 0, 57, 0, 0, 14, 54, 44, 0)
s = 11: (0, 2, 0, 66, 0, 58, 0, 0, 15, 62, 29, 0)
s = 12: (0, 3, 0, 33, 0, 73, 0, 0, 9, 73, 40, 0)
s = 13: (0, 2, 0, 48, 0, 63, 0, 0, 8, 35, 35, 0)
s = 14: (0, 3, 0, 67, 0, 53, 0, 0, 10, 55, 18, 0)
s = 15: (0, 3, 0, 47, 0, 70, 0, 0, 12, 29, 20, 0)
s = 16: (0, 2, 0, 36, 0, 67, 0, 0, 9, 53, 26, 0)
s = 17: (0, 3, 0, 43, 0, 73, 0, 0, 13, 39, 16, 0)
s = 18: (0, 3, 0, 36, 0, 61, 0, 0, 11, 48, 29, 0)
s = 19: (0, 2, 0, 31, 0, 73, 0, 0, 14, 40, 22, 0)
s = 20: (0, 2, 0, 31, 0, 72, 0, 0, 8, 34, 23, 0)
s = 21: (0, 2, 0, 50, 0, 97, 0, 0, 9, 36, 32, 0)
s = 22: (0, 3, 0, 26, 0, 86, 0, 0, 10, 66, 40, 0)
s = 23: (0, 2, 0, 56, 0, 65, 0, 0, 10, 67, 25, 0)
s = 24: (0, 2, 0, 56, 0, 76, 0, 0, 12, 58, 17, 0)
s = 25: (0, 3, 0, 40, 0, 82, 0, 0, 12, 53, 41, 0)
s = 26: (0, 2, 0, 23, 0, 49, 0, 0, 14, 56, 35, 0)
s = 27: (0, 2, 0, 28, 0, 41, 0, 0, 11, 56, 35, 0)
s = 28: (0, 2, 0, 42, 0, 58, 0, 0, 11, 28, 43, 0)
s = 29: (0, 3, 0, 48, 0, 44, 0, 0, 9, 40, 27, 0)
s = 30: (0, 2, 0, 31, 0, 53, 0, 0, 8, 69, 16, 0)
s = 31: (0, 3, 0, 55, 0, 64, 0, 0, 6, 43, 24, 0)
s = 32: (0, 2, 0, 41, 0, 41, 0, 0, 8, 59, 32, 0)
s = 33: (0, 2, 0, 37, 0, 60, 0, 0, 8, 47, 18, 0)
s = 34: (0, 3, 0, 48, 0, 77, 0, 0, 7, 44, 38, 0)
s = 35: (0, 2, 0, 30, 0, 92, 0, 0, 16, 52, 29, 0)
s = 36: (0, 2, 0, 32, 0, 60, 0, 0, 11, 48, 17, 0)
s = 37: (0, 3, 0, 45, 0, 105, 0, 0, 13, 51, 36, 0)
s = 38: (0, 2, 0, 32, 0, 68, 0, 0, 10, 57, 31, 0)
s = 39: (0, 2, 0, 29, 0, 58, 0, 0, 10, 30, 30, 0)
s = 40: (0, 2, 0, 37, 0, 89, 0, 0, 12, 33, 21, 0)
s = 41: (0, 3, 0, 37, 0, 60, 0, 0, 13, 32, 23, 0)
s = 42: (0, 3, 0, 64, 0, 44, 0, 0, 8, 37, 29, 0)
s = 43: (0, 3, 0, 44, 0, 52, 0, 0, 14, 62, 23, 0)
s = 44: (0, 2, 0, 33, 0, 83, 0, 0, 13, 31, 33, 0)
s = 45: (0, 3, 0, 36, 0, 73, 0, 0, 8, 57, 37, 0)
s = 46: (0, 2, 0, 47, 0, 81, 0, 0, 8, 34, 24, 0)
s = 47: (0, 3, 0, 28, 0, 92, 0, 0, 9, 33, 47, 0)
s = 48: (0, 3, 0, 38, 0, 54, 0, 0, 8, 35, 20, 0)
s = 49: (0, 2, 0, 26, 0, 47, 0, 0, 10, 57, 18, 0)
s = 50: (0, 3, 0, 27, 0, 44, 0, 0, 9, 53, 22, 0)
s = 51: (0, 2, 0, 34, 0, 98, 0, 0, 12, 51, 16, 0)
s = 52: (0, 2, 0, 49, 0, 76, 0, 0, 13, 52, 32, 0)
s = 53: (0, 2, 0, 41, 0, 61, 0, 0, 9, 51, 37, 0)
s = 54: (0, 2, 0, 27, 0, 70, 0, 0, 12, 49, 29, 0)
s = 55: (0, 2, 0, 31, 0, 41, 0, 0, 8, 50, 18, 0)
s = 56: (0, 2, 0, 35, 0, 77, 0, 0, 9, 64, 17, 0)
s = 57: (0, 2, 0, 28, 0, 110, 0, 0, 8, 38, 32, 0)
s = 58: (0, 2, 0, 43, 0, 81, 0, 0, 12, 52, 22, 0)
s = 59: (0, 2, 0, 41, 0, 79, 0, 0, 16, 32, 24, 0)
s = 60: (0, 2, 0, 27, 0, 54, 0, 0, 10, 44, 27, 0)
s = 61: (0, 3, 0, 47, 0, 78, 0, 0, 11, 38, 29, 0)
s = 62: (0, 3, 0, 38, 0, 48, 0, 0, 10, 31, 30, 0)
s = 63: (0, 3, 0, 45, 0, 41, 0, 0, 6, 36, 32, 0)
s = 64: (0, 3, 0, 33, 0, 69, 0, 0, 9, 41, 50, 0)
s = 65: (0, 3, 0, 64, 0, 66, 0, 0, 11, 59, 32, 0)
s = 66: (0, 3, 0, 35, 0, 40, 0, 0, 12, 32, 23, 0)
s = 67: (0, 3, 0, 45, 0, 75, 0, 0, 12, 28, 17, 0)
s = 68: (0, 4, 0, 23, 0, 50, 0, 0, 8, 30, 25, 0)
s = 69: (0, 3, 0, 41, 0, 49, 0, 0, 8, 53, 42, 0)
s = 70: (0, 2, 0, 40, 0, 46, 0, 0, 7, 37, 16, 0)
s = 71: (0, 2, 0, 41, 0, 43, 0, 0, 7, 55, 25, 0)
s = 72: (0, 3, 0, 55, 0, 108, 0, 0, 8, 57, 25, 0)
s = 73: (0, 2, 0, 41, 0, 86, 0, 0, 10, 35, 20, 0)
s = 74: (0, 2, 0, 47, 0, 74, 0, 0, 7, 45, 36, 0)
s = 75: (0, 2, 0, 50, 0, 69, 0, 0, 11, 55, 36, 0)
s = 76: (0, 3, 0, 55, 0, 50, 0, 0, 10, 60, 24, 0)
s = 77: (0, 3, 0, 69, 0, 79, 0, 0, 11, 64, 20, 0)
s = 78: (0, 2, 0, 56, 0, 70, 0, 0, 11, 51, 31, 0)
s = 79: (0, 3, 0, 23, 0, 73, 0, 0, 7, 43, 19, 0)
s = 80: (0, 3, 0, 39, 0, 64, 0, 0, 13, 49, 17, 0)
s = 81: (0, 2, 0, 42, 0, 97, 0, 0, 8, 36, 34, 0)
s = 82: (0, 3, 0, 39, 0, 43, 0, 0, 14, 58, 33, 0)
s = 83: (0, 3, 0, 39, 0, 63, 0, 0, 12, 56, 34, 0)
s = 84: (0, 2, 0, 31, 0, 86, 0, 0, 16, 63, 22, 0)
s = 85: (0, 2, 0, 24, 0, 47, 0, 0, 11, 69, 39, 0)
s = 86: (0, 4, 0, 49, 0, 73, 0, 0, 9, 43, 28, 0)
s = 87: (0, 2, 0, 41, 0, 48, 0, 0, 9, 43, 21, 0)
s = 88: (0, 3, 0, 33, 0, 104, 0, 0, 10, 52, 47, 0)
s = 89: (0, 2, 0, 68, 0, 47, 0, 0, 14, 49, 25, 0)
s = 90: (0, 3, 0, 33, 0, 56, 0, 0, 9, 35, 33, 0)
s = 91: (0, 3, 0, 24, 0, 34, 0, 0, 12, 68, 26, 0)
s = 92: (0, 2, 0, 21, 0, 52, 0, 0, 10, 31, 34, 0)
s = 93: (0, 2, 0, 47, 0, 50, 0, 0, 8, 26, 23, 0)
s = 94: (0, 2, 0, 37, 0, 48, 0, 0, 8, 59, 27, 0)
s = 95: (0, 2, 0, 36, 0, 76, 0, 0, 15, 35, 47, 0)
s = 96: (0, 2, 0, 41, 0, 46, 0, 0, 10, 34, 24, 0)
s = 97: (0, 3, 0, 29, 0, 73, 0, 0, 10, 42, 17, 0)
s = 98: (0, 3, 0, 52, 0, 54, 0, 0, 10, 42, 38, 0)
s = 99: (0, 3, 0, 28, 0, 106, 0, 0, 10, 51, 26, 0)
s = 100: (0, 2, 0, 27, 0, 79, 0, 0, 12, 94, 23, 0)
s = 101: (0, 2, 0, 28, 0, 46, 0, 0, 8, 40, 25, 0)
s = 102: (0, 2, 0, 32, 0, 55, 0, 0, 13, 41, 36, 0)
s = 103: (0, 3, 0, 36, 0, 78, 0, 0, 17, 76, 24, 0)
s = 104: (0, 3, 0, 57, 0, 40, 0, 0, 8, 63, 23, 0)
s = 105: (0, 4, 0, 46, 0, 42, 0, 0, 7, 30, 43, 0)
s = 106: (0, 2, 0, 76, 0, 44, 0, 0, 8, 69, 37, 0)
s = 107: (0, 2, 0, 53, 0, 56, 0, 0, 8, 31, 46, 0)
s = 108: (0, 2, 0, 36, 0, 39, 0, 0, 9, 44, 34, 0)
s = 109: (0, 3, 0, 63, 0, 78, 0, 0, 11, 43, 35, 0)
s = 110: (0, 2, 0, 28, 0, 76, 0, 0, 9, 37, 30, 0)
s = 111: (0, 2, 0, 52, 0, 48, 0, 0, 14, 55, 33, 0)
s = 112: (0, 2, 0, 74, 0, 57, 0, 0, 11, 56, 32, 0)
s = 113: (0, 2, 0, 23, 0, 67, 0, 0, 12, 27, 30, 0)
s = 114: (0, 2, 0, 50, 0, 36, 0, 0, 11, 38, 28, 0)
s = 115: (0, 2, 0, 48, 0, 98, 0, 0, 13, 56, 18, 0)
s = 116: (0, 3, 0, 31, 0, 95, 0, 0, 13, 35, 30, 0)
s = 117: (0, 3, 0, 41, 0, 78, 0, 0, 9, 53, 33, 0)
s = 118: (0, 2, 0, 31, 0, 52, 0, 0, 13, 52, 32, 0)
s = 119: (0, 2, 0, 37, 0, 83, 0, 0, 9, 44, 22, 0)
s = 120: (0, 2, 0, 40, 0, 74, 0, 0, 10, 56, 30, 0)
s = 121: (0, 2, 0, 25, 0, 58, 0, 0, 8, 53, 19, 0)
s = 122: (0, 2, 0, 32, 0, 43, 0, 0, 18, 56, 30, 0)
s = 123: (0, 2, 0, 31, 0, 50, 0, 0, 8, 45, 25, 0)
s = 124: (0, 2, 0, 23, 0, 46, 0, 0, 14, 27, 40, 0)
s = 125: (0, 2, 0, 32, 0, 46, 0, 0, 13, 43, 28, 0)
s = 126: (0, 2, 0, 36, 0, 46, 0, 0, 13, 38, 17, 0)
s = 127: (0, 2, 0, 32, 0, 86, 0, 0, 6, 53, 18, 0)
s = 128: (0, 2, 0, 53, 0, 64, 0, 0, 10, 73, 31, 0)
s = 129: (0, 2, 0, 36, 0, 91, 0, 0, 11, 35, 19, 0)
s = 130: (0, 2, 0, 53, 0, 55, 0, 0, 10, 29, 16, 0)
s = 131: (0, 3, 0, 41, 0, 44, 0, 0, 10, 63, 25, 0)
s = 132: (0, 2, 0, 30, 0, 40, 0, 0, 6, 50, 26, 0)
s = 133: (0, 2, 0, 55, 0, 98, 0, 0, 10, 52, 30, 0)
s = 134: (0, 3, 0, 39, 0, 76, 0, 0, 11, 72, 33, 0)
s = 135: (0, 2, 0, 50, 0, 38, 0, 0, 13, 57, 27, 0)
s = 136: (0, 2, 0, 67, 0, 47, 0, 0, 16, 33, 36, 0)
s = 137: (0, 2, 0, 38, 0, 76, 0, 0, 14, 63, 25, 0)
s = 138: (0, 3, 0, 63, 0, 41, 0, 0, 8, 44, 30, 0)
s = 139: (0, 4, 0, 21, 0, 62, 0, 0, 16, 59, 36, 0)
s = 140: (0, 2, 0, 56, 0, 104, 0, 0, 15, 31, 33, 0)
s = 141: (0, 3, 0, 47, 0, 61, 0, 0, 16, 39, 30, 0)
s = 142: (0, 2, 0, 38, 0, 52, 0, 0, 10, 64, 38, 0)
s = 143: (0, 2, 0, 24, 0, 70, 0, 0, 10, 35, 28, 0)
s = 144: (0, 2, 0, 41, 0, 68, 0, 0, 9, 46, 18, 0)
s = 145: (0, 2, 0, 23, 0, 54, 0, 0, 16, 53, 26, 0)
s = 146: (0, 4, 0, 65, 0, 46, 0, 0, 12, 56, 34, 0)
s = 147: (0, 4, 0, 32, 0, 95, 0, 0, 9, 47, 50, 0)
s = 148: (0, 2, 0, 36, 0, 75, 0, 0, 9, 43, 15, 0)
s = 149: (0, 3, 0, 78, 0, 88, 0, 0, 9, 41, 42, 0)
s = 150: (0, 3, 0, 30, 0, 80, 0, 0, 10, 34, 21, 0)
s = 151: (0, 3, 0, 62, 0, 41, 0, 0, 12, 34, 24, 0)
s = 152: (0, 2, 0, 26, 0, 48, 0, 0, 6, 45, 21, 0)
s = 153: (0, 2, 0, 42, 0, 52, 0, 0, 13, 49, 31, 0)
s = 154: (0, 3, 0, 51, 0, 45, 0, 0, 15, 63, 41, 0)
s = 155: (0, 2, 0, 54, 0, 80, 0, 0, 14, 47, 30, 0)
s = 156: (0, 2, 0, 27, 0, 57, 0, 0, 12, 38, 33, 0)
s = 157: (0, 2, 0, 37, 0, 79, 0, 0, 9, 27, 27, 0)
s = 158: (0, 2, 0, 32, 0, 102, 0, 0, 11, 47, 20, 0)
s = 159: (0, 3, 0, 47, 0, 52, 0, 0, 9, 55, 26, 0)
s = 160: (0, 3, 0, 42, 0, 64, 0, 0, 11, 32, 40, 0)
s = 161: (0, 2, 0, 38, 0, 82, 0, 0, 11, 81, 43, 0)
s = 162: (0, 2, 0, 57, 0, 83, 0, 0, 11, 53, 25, 0)
s = 163: (0, 3, 0, 51, 0, 58, 0, 0, 11, 64, 20, 0)
s = 164: (0, 2, 0, 54, 0, 41, 0, 0, 8, 64, 36, 0)
s = 165: (0, 2, 0, 36, 0, 72, 0, 0, 9, 42, 21, 0)
s = 166: (0, 2, 0, 42, 0, 41, 0, 0, 9, 46, 20, 0)
s = 167: (0, 2, 0, 48, 0, 122, 0, 0, 8, 53, 21, 0)
s = 168: (0, 3, 0, 35, 0, 59, 0, 0, 10, 42, 29, 0)
s = 169: (0, 2, 0, 43, 0, 54, 0, 0, 11, 28, 20, 0)
s = 170: (0, 2, 0, 57, 0, 72, 0, 0, 8, 30, 26, 0)
s = 171: (0, 3, 0, 41, 0, 78, 0, 0, 11, 50, 21, 0)
s = 172: (0, 2, 0, 40, 0, 54, 0, 0, 11, 34, 34, 0)
s = 173: (0, 4, 0, 28, 0, 80, 0, 0, 6, 87, 39, 0)
s = 174: (0, 2, 0, 26, 0, 38, 0, 0, 9, 48, 28, 0)
s = 175: (0, 2, 0, 57, 0, 48, 0, 0, 9, 47, 17, 0)
s = 176: (0, 3, 0, 31, 0, 58, 0, 0, 8, 28, 35, 0)
s = 177: (0, 2, 0, 29, 0, 62, 0, 0, 7, 56, 42, 0)
s = 178: (0, 2, 0, 39, 0, 58, 0, 0, 8, 31, 41, 0)
s = 179: (0, 2, 0, 56, 0, 37, 0, 0, 8, 51, 19, 0)
s = 180: (0, 3, 0, 28, 0, 100, 0, 0, 13, 32, 34, 0)
s = 181: (0, 2, 0, 68, 0, 48, 0, 0, 15, 32, 31, 0)
s = 182: (0, 2, 0, 52, 0, 53, 0, 0, 15, 45, 30, 0)
s = 183: (0, 3, 0, 30, 0, 49, 0, 0, 12, 48, 32, 0)
s = 184: (0, 2, 0, 28, 0, 46, 0, 0, 14, 57, 22, 0)
s = 185: (0, 3, 0, 35, 0, 51, 0, 0, 11, 39, 27, 0)
s = 186: (0, 4, 0, 44, 0, 113, 0, 0, 14, 37, 22, 0)
s = 187: (0, 3, 0, 40, 0, 41, 0, 0, 10, 51, 33, 0)
s = 188: (0, 2, 0, 23, 0, 50, 0, 0, 13, 56, 26, 0)
s = 189: (0, 2, 0, 61, 0, 84, 0, 0, 9, 50, 21, 0)
s = 190: (0, 2, 0, 30, 0, 101, 0, 0, 10, 44, 22, 0)
s = 191: (0, 3, 0, 29, 0, 76, 0, 0, 12, 44, 21, 0)
s = 192: (0, 3, 0, 36, 0, 69, 0, 0, 11, 74, 21, 0)
s = 193: (0, 2, 0, 46, 0, 73, 0, 0, 16, 58, 25, 0)
s = 194: (0, 2, 0, 37, 0, 62, 0, 0, 9, 52, 16, 0)
s = 195: (0, 2, 0, 33, 0, 64, 0, 0, 12, 38, 28, 0)
s = 196: (0, 3, 0, 39, 0, 65, 0, 0, 6, 47, 36, 0)
s = 197: (0, 2, 0, 54, 0, 38, 0, 0, 8, 77, 19, 0)
s = 198: (0, 2, 0, 36, 0, 81, 0, 0, 8, 49, 32, 0)
s = 199: (0, 2, 0, 29, 0, 68, 0, 0, 14, 48, 26, 0)
s = 200: (0, 4, 0, 47, 0, 79, 0, 0, 10, 47, 24, 0)
************************************************************************
ES/LS-VALUES:
jobnr.   ES(i)    LS(i)
------------------------------------------------------------------------
  0        0        0
  1        0       57
  2        0       38
  3        0       52
  4        5       65
  5        5       44
  6       22       62
  7        5       59
  8       29       77
  9       29       70
 10       16       73
 11       44       86
************************************************************************
BIG-M-VALUES:
M1 = 75, M2 = 284
************************************************************************
